c File: instances/32_0.45_2.col
c
c Description: Random graph of size 32 vertices and P(0.44999999999999996) of edges between any two vertices.
p col 32 496
e 1 3
e 1 4
e 1 5
e 1 7
e 1 10
e 1 13
e 1 15
e 1 16
e 1 18
e 1 21
e 1 22
e 1 23
e 1 25
e 1 27
e 1 28
e 1 30
e 1 31
e 1 32
e 2 3
e 2 10
e 2 13
e 2 18
e 2 21
e 2 23
e 2 26
e 2 27
e 2 28
e 2 29
e 2 31
e 2 32
e 3 7
e 3 8
e 3 12
e 3 16
e 3 17
e 3 25
e 3 27
e 3 28
e 3 29
e 3 30
e 3 31
e 4 7
e 4 8
e 4 9
e 4 11
e 4 12
e 4 13
e 4 14
e 4 15
e 4 16
e 4 18
e 4 20
e 4 21
e 4 22
e 4 23
e 4 26
e 4 28
e 4 29
e 5 9
e 5 10
e 5 11
e 5 17
e 5 19
e 5 20
e 5 25
e 5 26
e 5 28
e 5 29
e 5 30
e 5 31
e 6 7
e 6 8
e 6 10
e 6 12
e 6 14
e 6 15
e 6 16
e 6 17
e 6 18
e 6 20
e 6 23
e 6 27
e 6 28
e 6 29
e 6 31
e 7 8
e 7 9
e 7 10
e 7 12
e 7 14
e 7 16
e 7 19
e 7 22
e 7 23
e 7 25
e 7 27
e 7 31
e 7 32
e 8 9
e 8 14
e 8 16
e 8 18
e 8 20
e 8 22
e 8 25
e 8 29
e 8 31
e 9 11
e 9 16
e 9 18
e 9 20
e 9 21
e 9 27
e 9 28
e 9 30
e 10 11
e 10 12
e 10 13
e 10 14
e 10 15
e 10 18
e 10 19
e 10 20
e 10 22
e 10 23
e 10 25
e 10 26
e 10 28
e 10 31
e 11 13
e 11 17
e 11 18
e 11 19
e 11 20
e 11 22
e 11 23
e 11 25
e 11 26
e 11 27
e 11 28
e 11 29
e 11 30
e 11 31
e 11 32
e 12 14
e 12 16
e 12 19
e 12 23
e 12 24
e 12 31
e 13 14
e 13 15
e 13 17
e 13 22
e 13 24
e 13 26
e 13 27
e 13 29
e 13 30
e 14 18
e 14 19
e 14 22
e 14 23
e 14 26
e 14 28
e 14 30
e 14 31
e 14 32
e 15 17
e 15 18
e 15 19
e 15 20
e 15 21
e 15 24
e 15 26
e 15 27
e 15 29
e 15 30
e 15 31
e 16 20
e 16 22
e 16 24
e 16 25
e 16 26
e 16 29
e 16 32
e 17 19
e 17 22
e 17 24
e 17 25
e 17 32
e 18 21
e 18 22
e 18 23
e 18 24
e 18 28
e 18 29
e 18 31
e 18 32
e 19 20
e 19 23
e 19 24
e 20 22
e 20 28
e 20 30
e 20 32
e 21 22
e 21 24
e 21 27
e 22 23
e 22 28
e 22 30
e 22 32
e 23 24
e 23 25
e 23 26
e 23 28
e 23 31
e 24 26
e 24 32
e 25 26
e 25 32
e 26 27
e 26 28
e 27 28
e 27 30
e 27 31
e 27 32
e 28 29
e 28 31
e 28 32
e 29 30
e 29 31
e 29 32
e 30 31
e 30 32